&bands
    prefix = 'ge'
    outdir = './'
    filband = 'ge.bands'
    lsym = .false.
    /

