&control
   calculation = 'scf'
   prefix = 'ge'
   pseudo_dir = './pseudopotentials'
   outdir = './'
   verbosity = 'high'
/

&system
   ibrav = 2
   celldm(1) = 10.677
   nat = 2
   ntyp = 1
   nbnd = 20
   ecutwfc = 40
   ecutrho = 160
/

&electrons
   diagonalization = 'david'
   mixing_beta = 0.7
   conv_thr = 1e-8
/

ATOMIC_SPECIES
Ge  72.64  ge.pbe-dn-kjpaw_psl.1.0.0.UPF

ATOMIC_POSITIONS crystal
Ge 0.0 0.0 0.0
Ge 0.25 0.25 0.25

K_POINTS automatic
8 8 8 1 1 1

